NAME: br17 
TYPE: ATSP 
COMMENT: 17 city problem (Repetto) 
DIMENSION: 17 
EDGE_WEIGHT_TYPE: EXPLICIT 
EDGE_WEIGHT_FORMAT: FULL_MATRIX 

CROSSOVER: 1
MUTATIONS: 1 0
SELECTION: 1
GENERATIONS: 510
POPULATION: 85

0 time
 7 11 13 2 9 10 12 1 0 15 6 14 8 16 3 4 5 | Mu 58.

1 time
 0 2 13 10 9 1 12 11 16 6 14 5 4 3 15 8 7 | Mu 49.

2 time
 15 6 5 7 8 11 13 2 9 12 1 10 0 16 4 3 14 | Mu 47.

3 time
 1 11 0 5 15 6 14 4 3 8 7 16 12 9 13 2 10 | Mu 40.

4 time
 11 0 9 1 13 2 12 10 15 14 6 5 4 3 8 16 7 | Mu 40.

MINIMUM: 40
AVERAGE: 46
MAXIMUM: 58

CROSSOVER: 1
MUTATIONS: 2 0
SELECTION: 1
GENERATIONS: 510
POPULATION: 85

0 time
 14 6 9 1 2 13 10 0 12 8 7 5 4 3 16 11 15 | Mu 64.

1 time
 5 4 15 14 6 1 8 11 12 13 2 0 9 10 16 7 3 | Mu 67.

2 time
 13 2 10 9 1 11 15 6 3 4 14 5 16 7 8 0 12 | Mu 45.

3 time
 10 1 13 12 2 9 5 8 16 7 3 4 15 0 11 6 14 | Mu 70.

4 time
 5 6 14 10 7 16 11 1 12 13 2 9 0 8 15 4 3 | Mu 55.

MINIMUM: 45
AVERAGE: 60
MAXIMUM: 70

CROSSOVER: 1
MUTATIONS: 1 2
SELECTION: 1
GENERATIONS: 510
POPULATION: 85

0 time
 2 12 9 1 10 14 5 0 16 7 4 3 6 15 8 11 13 | Mu 60.

1 time
 9 1 13 10 8 11 0 2 12 5 14 6 15 4 3 16 7 | Mu 55.

2 time
 11 10 9 1 13 0 8 14 5 6 15 3 4 16 7 12 2 | Mu 55.

3 time
 11 1 13 10 9 16 7 14 15 5 6 4 3 8 12 2 0 | Mu 53.

4 time
 16 8 12 9 10 1 13 2 11 0 15 5 14 4 3 6 7 | Mu 41.

MINIMUM: 41
AVERAGE: 52
MAXIMUM: 60

CROSSOVER: 1
MUTATIONS: 1 0
SELECTION: 2
GENERATIONS: 510
POPULATION: 85

0 time
 14 4 3 5 11 2 13 10 9 12 1 0 7 8 16 6 15 | Mu 44.

1 time
 3 15 6 16 7 8 9 12 10 1 2 13 11 0 14 5 4 | Mu 41.

2 time
 16 11 0 13 9 1 14 3 5 15 6 12 2 10 8 4 7 | Mu 76.

3 time
 8 11 1 14 6 4 3 15 5 9 12 10 13 2 0 16 7 | Mu 49.

4 time
 14 0 1 12 10 13 2 11 8 7 16 4 3 15 5 6 9 | Mu 58.

MINIMUM: 41
AVERAGE: 53
MAXIMUM: 76

CROSSOVER: 1
MUTATIONS: 2 0
SELECTION: 2
GENERATIONS: 510
POPULATION: 85

0 time
 2 13 9 1 0 10 15 14 11 5 6 4 3 16 7 8 12 | Mu 59.

1 time
 16 11 0 12 2 1 10 13 9 15 6 7 3 4 5 14 8 | Mu 62.

2 time
 0 7 11 1 13 2 10 12 16 8 5 14 6 4 3 15 9 | Mu 55.

3 time
 15 12 2 13 1 5 6 4 3 16 8 7 9 11 0 10 14 | Mu 59.

4 time
 7 16 0 2 1 13 10 12 9 15 14 5 3 4 6 11 8 | Mu 52.

MINIMUM: 52
AVERAGE: 57
MAXIMUM: 62

CROSSOVER: 1
MUTATIONS: 1 2
SELECTION: 2
GENERATIONS: 510
POPULATION: 85

0 time
 0 12 2 13 9 1 5 14 3 4 6 15 8 16 7 10 11 | Mu 45.

1 time
 7 10 1 12 9 15 5 16 8 11 13 2 0 14 6 4 3 | Mu 62.

2 time
 1 16 5 6 10 12 0 11 14 15 4 3 8 7 9 13 2 | Mu 61.

3 time
 5 6 3 4 14 16 12 2 13 1 10 7 8 9 11 0 15 | Mu 52.

4 time
 14 6 1 2 13 11 0 12 9 10 7 8 16 4 3 5 15 | Mu 42.

MINIMUM: 42
AVERAGE: 52
MAXIMUM: 62

CROSSOVER: 2
MUTATIONS: 1 2
SELECTION: 2
GENERATIONS: 510
POPULATION: 85

0 time
 11 14 16 12 13 2 10 1 9 8 7 3 4 15 5 6 0 | Mu 58.

1 time
 1 0 7 5 14 6 4 3 15 8 16 11 9 10 12 13 2 | Mu 50.

2 time
 0 15 5 8 16 4 3 6 14 7 9 10 13 2 1 12 11 | Mu 56.

3 time
 14 9 10 12 1 13 2 0 11 16 7 8 5 15 3 4 6 | Mu 41.

4 time
 11 0 9 1 10 13 2 12 8 7 15 6 3 4 5 14 16 | Mu 47.

MINIMUM: 41
AVERAGE: 50
MAXIMUM: 61

